(set-logic QF_UF)
(declare-fun A0 () Bool)
(declare-fun A1 () Bool)
(declare-fun A2 () Bool)
(declare-fun A3 () Bool)
(declare-fun A4 () Bool)
(declare-fun A5 () Bool)
(declare-fun A6 () Bool)
(declare-fun A7 () Bool)
(declare-fun A8 () Bool)
(declare-fun A9 () Bool)
(declare-fun A11 () Bool)
(declare-fun A12 () Bool)
(declare-fun A13 () Bool)
(declare-fun A14 () Bool)
(declare-fun A15 () Bool)
(declare-fun A16 () Bool)
(declare-fun A17 () Bool)
(declare-fun A18 () Bool)
(declare-fun A19 () Bool)
(declare-fun A20 () Bool)
(declare-fun A21 () Bool)
(declare-fun A22 () Bool)
(declare-fun A24 () Bool)
(declare-fun A25 () Bool)
(declare-fun A26 () Bool)
(declare-fun A27 () Bool)
(declare-fun A28 () Bool)
(declare-fun A29 () Bool)
(assert (let ((.def_0 (not A4))) (let ((.def_1 (not A7))) (let ((.def_2 (and .def_1 .def_0))) (let ((.def_3 (not A16))) (let ((.def_4 (not A27))) (let ((.def_5 (or .def_4 .def_3))) (let ((.def_6 (not .def_5))) (let ((.def_7 (and .def_6 .def_2))) (let ((.def_8 (not .def_7))) (let ((.def_9 (or A14 A29))) (let ((.def_10 (not .def_9))) (let ((.def_11 (or A20 .def_4))) (let ((.def_12 (and .def_11 .def_10))) (let ((.def_13 (not .def_12))) (let ((.def_14 (or .def_13 .def_8))) (let ((.def_15 (not .def_14))) (let ((.def_16 (not A3))) (let ((.def_17 (= .def_4 .def_16))) (let ((.def_18 (or A21 A12))) (let ((.def_19 (or .def_18 .def_17))) (let ((.def_20 (or A9 A1))) (let ((.def_21 (not .def_20))) (let ((.def_22 (not A8))) (let ((.def_23 (or A29 .def_22))) (let ((.def_24 (and .def_23 .def_21))) (let ((.def_25 (and .def_24 .def_19))) (let ((.def_26 (or .def_25 .def_15))) (let ((.def_27 (not .def_26))) (let ((.def_28 (not A18))) (let ((.def_29 (and A22 .def_28))) (let ((.def_30 (not .def_29))) (let ((.def_31 (not A5))) (let ((.def_32 (or A14 .def_31))) (let ((.def_33 (not .def_32))) (let ((.def_34 (and .def_33 .def_30))) (let ((.def_35 (not .def_34))) (let ((.def_36 (not A22))) (let ((.def_37 (not A21))) (let ((.def_38 (or .def_37 .def_36))) (let ((.def_39 (not .def_38))) (let ((.def_40 (not A12))) (let ((.def_41 (or A0 .def_40))) (let ((.def_42 (and .def_41 .def_39))) (let ((.def_43 (not .def_42))) (let ((.def_44 (and .def_43 .def_35))) (let ((.def_45 (not .def_44))) (let ((.def_46 (not A24))) (let ((.def_47 (= .def_46 A8))) (let ((.def_48 (or A6 A19))) (let ((.def_49 (or .def_48 .def_47))) (let ((.def_50 (not A15))) (let ((.def_51 (or .def_50 A17))) (let ((.def_52 (and A13 A19))) (let ((.def_53 (not .def_52))) (let ((.def_54 (and .def_53 .def_51))) (let ((.def_55 (and .def_54 .def_49))) (let ((.def_56 (and .def_55 .def_45))) (let ((.def_57 (not .def_56))) (let ((.def_58 (or .def_57 .def_27))) (let ((.def_59 (or .def_0 A24))) (let ((.def_60 (not .def_59))) (let ((.def_61 (not A11))) (let ((.def_62 (and .def_46 .def_61))) (let ((.def_63 (= .def_62 .def_60))) (let ((.def_64 (not .def_63))) (let ((.def_65 (or .def_50 .def_0))) (let ((.def_66 (not A6))) (let ((.def_67 (or .def_61 .def_66))) (let ((.def_68 (or .def_67 .def_65))) (let ((.def_69 (not .def_68))) (let ((.def_70 (and .def_69 .def_64))) (let ((.def_71 (not .def_70))) (let ((.def_72 (not A25))) (let ((.def_73 (or .def_72 A12))) (let ((.def_74 (not A28))) (let ((.def_75 (and A28 .def_74))) (let ((.def_76 (not .def_75))) (let ((.def_77 (= .def_76 .def_73))) (let ((.def_78 (not .def_77))) (let ((.def_79 (not A2))) (let ((.def_80 (or .def_79 A7))) (let ((.def_81 (not A14))) (let ((.def_82 (not A26))) (let ((.def_83 (and .def_82 .def_81))) (let ((.def_84 (not .def_83))) (let ((.def_85 (= .def_84 .def_80))) (let ((.def_86 (not .def_85))) (let ((.def_87 (or .def_86 .def_78))) (let ((.def_88 (not .def_87))) (let ((.def_89 (and .def_88 .def_71))) (let ((.def_90 (and A18 A11))) (let ((.def_91 (not A0))) (let ((.def_92 (not A13))) (let ((.def_93 (or .def_92 .def_91))) (let ((.def_94 (and .def_93 .def_90))) (let ((.def_95 (or .def_22 .def_3))) (let ((.def_96 (and .def_0 .def_79))) (let ((.def_97 (or .def_96 .def_95))) (let ((.def_98 (not .def_97))) (let ((.def_99 (and .def_98 .def_94))) (let ((.def_100 (not .def_99))) (let ((.def_101 (not A17))) (let ((.def_102 (or A24 .def_101))) (let ((.def_103 (not .def_102))) (let ((.def_104 (and .def_101 .def_0))) (let ((.def_105 (not .def_104))) (let ((.def_106 (and .def_105 .def_103))) (let ((.def_107 (not .def_106))) (let ((.def_108 (and A4 .def_0))) (let ((.def_109 (and .def_1 .def_4))) (let ((.def_110 (and .def_109 .def_108))) (let ((.def_111 (or .def_110 .def_107))) (let ((.def_112 (or .def_111 .def_100))) (let ((.def_113 (not .def_112))) (let ((.def_114 (= .def_113 .def_89))) (let ((.def_115 (not .def_114))) (let ((.def_116 (or .def_115 .def_58))) .def_116))))))))))))))))))))))))))))))))))))))))))))))))))))))))))))))))))))))))))))))))))))))))))))))))))))))))))))))))))))))
(check-sat)
